NAME : X-n685-k75
COMMENT : "Generated by Uchoa, Pecin, Pessoa, Poggi, Subramanian, and Vidal (2013)"
TYPE : CVRP
DIMENSION : 685
EDGE_WEIGHT_TYPE : EUC_2D
CAPACITY : 408
NODE_COORD_SECTION
1 500 500
2 112 700
3 363 779
4 245 896
5 238 19
6 184 351
7 305 763
8 366 814
9 137 857
10 564 31
11 303 157
12 523 830
13 134 231
14 851 445
15 740 311
16 163 95
17 275 499
18 470 814
19 453 217
20 818 525
21 311 911
22 177 374
23 230 4
24 590 302
25 196 103
26 553 879
27 316 446
28 665 375
29 587 609
30 510 95
31 907 455
32 805 956
33 342 345
34 785 309
35 649 584
36 850 24
37 26 126
38 447 817
39 145 527
40 218 825
41 405 151
42 389 436
43 452 619
44 407 367
45 948 514
46 836 996
47 578 334
48 491 929
49 325 696
50 838 842
51 983 788
52 623 549
53 915 72
54 774 336
55 81 238
56 534 537
57 295 406
58 853 358
59 742 581
60 32 964
61 747 352
62 610 799
63 786 853
64 506 168
65 755 957
66 408 67
67 485 734
68 419 256
69 508 155
70 941 589
71 68 42
72 817 595
73 397 274
74 727 302
75 216 237
76 821 320
77 516 531
78 614 163
79 561 920
80 128 834
81 162 534
82 279 644
83 188 329
84 520 301
85 336 782
86 728 230
87 139 848
88 350 154
89 242 162
90 791 925
91 907 497
92 52 593
93 786 457
94 629 745
95 935 439
96 641 78
97 78 835
98 232 226
99 123 479
100 205 840
101 932 357
102 917 917
103 325 559
104 413 373
105 362 477
106 827 881
107 845 263
108 11 938
109 88 535
110 436 200
111 940 319
112 325 59
113 34 264
114 47 470
115 322 89
116 757 29
117 825 289
118 287 304
119 657 82
120 288 406
121 287 623
122 616 828
123 60 445
124 978 511
125 956 171
126 818 184
127 605 464
128 462 934
129 563 229
130 506 33
131 814 68
132 457 26
133 547 983
134 623 49
135 164 326
136 256 410
137 551 8
138 940 421
139 587 947
140 231 470
141 917 773
142 553 355
143 964 782
144 331 857
145 193 135
146 389 572
147 632 320
148 585 987
149 631 844
150 704 809
151 881 194
152 598 542
153 682 37
154 579 317
155 454 676
156 54 971
157 504 747
158 424 367
159 45 177
160 216 986
161 458 390
162 480 741
163 806 752
164 424 65
165 606 280
166 311 237
167 837 594
168 596 957
169 213 118
170 315 173
171 693 538
172 729 167
173 249 497
174 213 878
175 884 558
176 397 475
177 888 399
178 557 197
179 368 270
180 254 421
181 3 697
182 227 994
183 63 432
184 531 811
185 675 657
186 930 645
187 336 439
188 536 219
189 684 432
190 701 543
191 507 829
192 156 483
193 14 568
194 404 597
195 350 781
196 357 207
197 356 501
198 231 732
199 592 613
200 683 261
201 599 58
202 203 387
203 414 285
204 756 280
205 337 957
206 668 18
207 949 898
208 773 165
209 369 303
210 801 597
211 782 190
212 14 583
213 194 98
214 106 109
215 454 45
216 335 464
217 516 730
218 918 58
219 958 984
220 670 508
221 743 477
222 896 962
223 238 669
224 530 678
225 482 11
226 528 853
227 696 404
228 506 702
229 49 895
230 633 782
231 681 633
232 768 575
233 959 76
234 855 313
235 999 440
236 560 58
237 430 401
238 165 27
239 409 50
240 708 176
241 887 99
242 368 21
243 122 330
244 115 722
245 452 297
246 592 406
247 303 284
248 261 751
249 457 506
250 794 809
251 569 561
252 707 87
253 932 133
254 259 874
255 491 948
256 589 818
257 111 973
258 102 759
259 92 873
260 121 799
261 935 711
262 766 638
263 352 905
264 98 147
265 542 425
266 518 201
267 698 252
268 393 751
269 778 80
270 958 155
271 515 267
272 453 759
273 690 37
274 512 720
275 639 940
276 807 88
277 27 543
278 935 133
279 860 400
280 560 922
281 746 237
282 808 146
283 419 421
284 898 206
285 500 650
286 42 529
287 513 915
288 582 155
289 151 700
290 377 563
291 792 436
292 452 748
293 262 200
294 880 549
295 857 677
296 928 229
297 599 351
298 444 301
299 762 972
300 504 609
301 630 246
302 294 651
303 517 798
304 257 162
305 28 367
306 480 944
307 583 268
308 339 933
309 170 87
310 383 541
311 374 641
312 481 226
313 633 172
314 209 321
315 759 813
316 492 115
317 699 276
318 494 177
319 557 821
320 760 939
321 853 444
322 602 517
323 42 343
324 749 800
325 282 613
326 225 766
327 444 199
328 503 69
329 379 107
330 884 863
331 440 849
332 143 882
333 237 146
334 424 765
335 664 891
336 371 638
337 154 338
338 524 941
339 203 567
340 963 505
341 130 180
342 188 880
343 96 258
344 273 915
345 369 562
346 248 583
347 837 987
348 740 64
349 778 263
350 822 285
351 184 529
352 825 387
353 854 308
354 345 503
355 371 598
356 404 507
357 396 527
358 128 660
359 825 977
360 205 897
361 811 299
362 288 488
363 262 947
364 280 952
365 259 962
366 167 434
367 512 612
368 340 895
369 751 32
370 190 391
371 856 988
372 229 602
373 878 929
374 198 480
375 231 546
376 936 255
377 228 916
378 586 852
379 797 290
380 813 941
381 138 787
382 660 256
383 762 77
384 264 482
385 786 959
386 156 554
387 381 778
388 315 370
389 261 635
390 839 874
391 903 37
392 764 69
393 198 639
394 863 385
395 169 450
396 241 911
397 185 809
398 662 253
399 360 595
400 295 900
401 441 491
402 255 971
403 277 404
404 262 911
405 713 61
406 249 921
407 252 887
408 847 375
409 257 944
410 837 937
411 308 645
412 946 162
413 820 95
414 363 917
415 395 485
416 741 220
417 390 612
418 721 248
419 810 241
420 278 420
421 937 191
422 845 993
423 827 859
424 260 961
425 257 935
426 278 563
427 265 989
428 361 517
429 263 616
430 675 855
431 219 927
432 823 980
433 437 562
434 840 868
435 124 627
436 216 635
437 213 699
438 306 690
439 345 627
440 700 251
441 188 772
442 64 633
443 723 320
444 747 321
445 240 382
446 181 742
447 811 977
448 358 544
449 772 392
450 483 560
451 788 903
452 770 261
453 263 601
454 807 47
455 287 642
456 412 517
457 188 843
458 418 542
459 803 661
460 442 876
461 68 1000
462 824 38
463 332 592
464 245 799
465 685 263
466 413 463
467 387 439
468 353 910
469 740 294
470 278 634
471 342 556
472 266 662
473 729 35
474 258 715
475 196 455
476 620 52
477 316 598
478 340 605
479 634 209
480 311 662
481 721 113
482 844 135
483 404 633
484 374 838
485 295 539
486 415 801
487 776 240
488 670 38
489 697 421
490 869 423
491 185 927
492 986 838
493 835 34
494 238 611
495 764 176
496 262 908
497 775 275
498 266 522
499 703 239
500 591 199
501 814 34
502 776 274
503 797 997
504 715 109
505 860 167
506 755 90
507 733 971
508 201 448
509 769 73
510 192 603
511 314 547
512 416 507
513 167 491
514 184 887
515 960 984
516 762 878
517 664 132
518 671 69
519 194 585
520 689 296
521 779 54
522 829 220
523 198 706
524 369 946
525 280 739
526 279 833
527 930 977
528 87 600
529 822 1000
530 352 522
531 779 40
532 247 558
533 891 995
534 734 329
535 354 880
536 70 952
537 740 75
538 845 210
539 710 202
540 784 87
541 835 735
542 961 844
543 740 123
544 870 974
545 801 980
546 315 467
547 499 911
548 291 915
549 643 190
550 41 868
551 802 69
552 593 339
553 373 633
554 653 82
555 138 580
556 300 641
557 427 451
558 860 376
559 734 50
560 688 26
561 788 276
562 294 897
563 103 513
564 758 55
565 374 576
566 771 328
567 754 25
568 303 849
569 864 956
570 943 828
571 223 654
572 268 242
573 211 414
574 833 937
575 361 649
576 743 79
577 844 92
578 859 949
579 283 839
580 465 621
581 700 879
582 393 595
583 725 297
584 394 585
585 399 635
586 340 536
587 183 524
588 235 561
589 129 622
590 918 954
591 518 488
592 182 831
593 424 586
594 245 587
595 445 943
596 787 940
597 716 101
598 779 24
599 437 355
600 530 783
601 445 763
602 288 920
603 288 497
604 837 960
605 795 278
606 509 815
607 182 265
608 803 160
609 250 543
610 246 405
611 306 521
612 124 883
613 244 637
614 754 75
615 296 879
616 318 880
617 789 89
618 407 239
619 331 635
620 468 291
621 290 615
622 249 986
623 254 877
624 347 563
625 802 826
626 325 620
627 361 923
628 835 304
629 188 991
630 467 574
631 333 669
632 784 209
633 327 923
634 99 484
635 270 602
636 331 793
637 379 553
638 756 28
639 336 448
640 323 834
641 585 724
642 323 986
643 804 283
644 319 517
645 604 298
646 685 972
647 304 652
648 264 508
649 336 899
650 256 885
651 128 449
652 877 962
653 674 90
654 312 500
655 298 554
656 631 790
657 756 122
658 183 877
659 820 968
660 488 589
661 185 604
662 768 176
663 880 307
664 184 915
665 327 842
666 482 587
667 242 935
668 220 822
669 335 579
670 284 735
671 861 917
672 281 701
673 901 963
674 740 56
675 74 628
676 879 981
677 286 610
678 848 166
679 349 734
680 229 963
681 130 755
682 792 823
683 289 856
684 879 945
685 404 534
PICKUP_AND_DELIVERY_SECTION
1 0 0 1000000000 0 0 0
2 0 0 1000000000 0 0 8
3 0 0 1000000000 0 0 25
4 0 0 1000000000 0 0 36
5 0 0 1000000000 0 83 0
6 0 0 1000000000 0 0 63
7 0 0 1000000000 0 0 3
8 0 0 1000000000 0 0 15
9 0 0 1000000000 0 47 0
10 0 0 1000000000 0 0 21
11 0 0 1000000000 0 0 54
12 0 0 1000000000 0 0 87
13 0 0 1000000000 0 94 0
14 0 0 1000000000 0 0 22
15 0 0 1000000000 0 0 31
16 0 0 1000000000 0 0 78
17 0 0 1000000000 0 71 0
18 0 0 1000000000 0 0 32
19 0 0 1000000000 0 0 60
20 0 0 1000000000 0 0 87
21 0 0 1000000000 0 31 0
22 0 0 1000000000 0 0 53
23 0 0 1000000000 0 0 76
24 0 0 1000000000 0 0 23
25 0 0 1000000000 0 93 0
26 0 0 1000000000 0 0 56
27 0 0 1000000000 0 0 72
28 0 0 1000000000 0 0 44
29 0 0 1000000000 0 92 0
30 0 0 1000000000 0 0 23
31 0 0 1000000000 0 0 48
32 0 0 1000000000 0 0 87
33 0 0 1000000000 0 70 0
34 0 0 1000000000 0 0 27
35 0 0 1000000000 0 0 72
36 0 0 1000000000 0 0 9
37 0 0 1000000000 0 64 0
38 0 0 1000000000 0 0 6
39 0 0 1000000000 0 0 40
40 0 0 1000000000 0 0 19
41 0 0 1000000000 0 68 0
42 0 0 1000000000 0 0 52
43 0 0 1000000000 0 0 41
44 0 0 1000000000 0 0 57
45 0 0 1000000000 0 94 0
46 0 0 1000000000 0 0 73
47 0 0 1000000000 0 0 10
48 0 0 1000000000 0 0 6
49 0 0 1000000000 0 31 0
50 0 0 1000000000 0 0 87
51 0 0 1000000000 0 0 70
52 0 0 1000000000 0 0 71
53 0 0 1000000000 0 32 0
54 0 0 1000000000 0 0 3
55 0 0 1000000000 0 0 94
56 0 0 1000000000 0 0 67
57 0 0 1000000000 0 98 0
58 0 0 1000000000 0 0 3
59 0 0 1000000000 0 0 97
60 0 0 1000000000 0 0 31
61 0 0 1000000000 0 25 0
62 0 0 1000000000 0 0 94
63 0 0 1000000000 0 0 87
64 0 0 1000000000 0 0 9
65 0 0 1000000000 0 66 0
66 0 0 1000000000 0 0 56
67 0 0 1000000000 0 0 13
68 0 0 1000000000 0 0 65
69 0 0 1000000000 0 1 0
70 0 0 1000000000 0 0 93
71 0 0 1000000000 0 0 56
72 0 0 1000000000 0 0 92
73 0 0 1000000000 0 64 0
74 0 0 1000000000 0 0 10
75 0 0 1000000000 0 0 83
76 0 0 1000000000 0 0 43
77 0 0 1000000000 0 64 0
78 0 0 1000000000 0 0 14
79 0 0 1000000000 0 0 81
80 0 0 1000000000 0 0 27
81 0 0 1000000000 0 46 0
82 0 0 1000000000 0 0 1
83 0 0 1000000000 0 0 96
84 0 0 1000000000 0 0 19
85 0 0 1000000000 0 7 0
86 0 0 1000000000 0 0 17
87 0 0 1000000000 0 0 26
88 0 0 1000000000 0 0 71
89 0 0 1000000000 0 56 0
90 0 0 1000000000 0 0 51
91 0 0 1000000000 0 0 43
92 0 0 1000000000 0 0 50
93 0 0 1000000000 0 49 0
94 0 0 1000000000 0 0 64
95 0 0 1000000000 0 0 1
96 0 0 1000000000 0 0 14
97 0 0 1000000000 0 42 0
98 0 0 1000000000 0 0 97
99 0 0 1000000000 0 0 97
100 0 0 1000000000 0 0 22
101 0 0 1000000000 0 1 0
102 0 0 1000000000 0 0 61
103 0 0 1000000000 0 0 30
104 0 0 1000000000 0 0 77
105 0 0 1000000000 0 61 0
106 0 0 1000000000 0 0 62
107 0 0 1000000000 0 0 33
108 0 0 1000000000 0 0 24
109 0 0 1000000000 0 5 0
110 0 0 1000000000 0 0 87
111 0 0 1000000000 0 0 1
112 0 0 1000000000 0 0 91
113 0 0 1000000000 0 76 0
114 0 0 1000000000 0 0 55
115 0 0 1000000000 0 0 62
116 0 0 1000000000 0 0 5
117 0 0 1000000000 0 5 0
118 0 0 1000000000 0 0 96
119 0 0 1000000000 0 0 48
120 0 0 1000000000 0 0 73
121 0 0 1000000000 0 46 0
122 0 0 1000000000 0 0 59
123 0 0 1000000000 0 0 82
124 0 0 1000000000 0 0 69
125 0 0 1000000000 0 14 0
126 0 0 1000000000 0 0 7
127 0 0 1000000000 0 0 7
128 0 0 1000000000 0 0 44
129 0 0 1000000000 0 5 0
130 0 0 1000000000 0 0 1
131 0 0 1000000000 0 0 37
132 0 0 1000000000 0 0 98
133 0 0 1000000000 0 52 0
134 0 0 1000000000 0 0 11
135 0 0 1000000000 0 0 58
136 0 0 1000000000 0 0 72
137 0 0 1000000000 0 4 0
138 0 0 1000000000 0 0 47
139 0 0 1000000000 0 0 97
140 0 0 1000000000 0 0 79
141 0 0 1000000000 0 90 0
142 0 0 1000000000 0 0 17
143 0 0 1000000000 0 0 69
144 0 0 1000000000 0 0 46
145 0 0 1000000000 0 78 0
146 0 0 1000000000 0 0 1
147 0 0 1000000000 0 0 25
148 0 0 1000000000 0 0 96
149 0 0 1000000000 0 91 0
150 0 0 1000000000 0 0 87
151 0 0 1000000000 0 0 3
152 0 0 1000000000 0 0 100
153 0 0 1000000000 0 46 0
154 0 0 1000000000 0 0 32
155 0 0 1000000000 0 0 22
156 0 0 1000000000 0 0 38
157 0 0 1000000000 0 55 0
158 0 0 1000000000 0 0 51
159 0 0 1000000000 0 0 83
160 0 0 1000000000 0 0 17
161 0 0 1000000000 0 91 0
162 0 0 1000000000 0 0 15
163 0 0 1000000000 0 0 75
164 0 0 1000000000 0 0 66
165 0 0 1000000000 0 12 0
166 0 0 1000000000 0 0 56
167 0 0 1000000000 0 0 95
168 0 0 1000000000 0 0 92
169 0 0 1000000000 0 79 0
170 0 0 1000000000 0 0 71
171 0 0 1000000000 0 0 95
172 0 0 1000000000 0 0 37
173 0 0 1000000000 0 61 0
174 0 0 1000000000 0 0 50
175 0 0 1000000000 0 0 74
176 0 0 1000000000 0 0 51
177 0 0 1000000000 0 14 0
178 0 0 1000000000 0 0 30
179 0 0 1000000000 0 0 92
180 0 0 1000000000 0 0 70
181 0 0 1000000000 0 46 0
182 0 0 1000000000 0 0 7
183 0 0 1000000000 0 0 77
184 0 0 1000000000 0 0 83
185 0 0 1000000000 0 55 0
186 0 0 1000000000 0 0 82
187 0 0 1000000000 0 0 60
188 0 0 1000000000 0 0 12
189 0 0 1000000000 0 35 0
190 0 0 1000000000 0 0 93
191 0 0 1000000000 0 0 89
192 0 0 1000000000 0 0 59
193 0 0 1000000000 0 46 0
194 0 0 1000000000 0 0 21
195 0 0 1000000000 0 0 22
196 0 0 1000000000 0 0 99
197 0 0 1000000000 0 15 0
198 0 0 1000000000 0 0 38
199 0 0 1000000000 0 0 88
200 0 0 1000000000 0 0 48
201 0 0 1000000000 0 48 0
202 0 0 1000000000 0 0 68
203 0 0 1000000000 0 0 62
204 0 0 1000000000 0 0 20
205 0 0 1000000000 0 26 0
206 0 0 1000000000 0 0 36
207 0 0 1000000000 0 0 65
208 0 0 1000000000 0 0 19
209 0 0 1000000000 0 79 0
210 0 0 1000000000 0 0 82
211 0 0 1000000000 0 0 36
212 0 0 1000000000 0 0 28
213 0 0 1000000000 0 92 0
214 0 0 1000000000 0 0 51
215 0 0 1000000000 0 0 95
216 0 0 1000000000 0 0 83
217 0 0 1000000000 0 52 0
218 0 0 1000000000 0 0 47
219 0 0 1000000000 0 0 78
220 0 0 1000000000 0 0 63
221 0 0 1000000000 0 5 0
222 0 0 1000000000 0 0 66
223 0 0 1000000000 0 0 20
224 0 0 1000000000 0 0 78
225 0 0 1000000000 0 96 0
226 0 0 1000000000 0 0 74
227 0 0 1000000000 0 0 27
228 0 0 1000000000 0 0 68
229 0 0 1000000000 0 16 0
230 0 0 1000000000 0 0 57
231 0 0 1000000000 0 0 54
232 0 0 1000000000 0 0 64
233 0 0 1000000000 0 19 0
234 0 0 1000000000 0 0 3
235 0 0 1000000000 0 0 16
236 0 0 1000000000 0 0 49
237 0 0 1000000000 0 64 0
238 0 0 1000000000 0 0 100
239 0 0 1000000000 0 0 55
240 0 0 1000000000 0 0 33
241 0 0 1000000000 0 11 0
242 0 0 1000000000 0 0 55
243 0 0 1000000000 0 0 84
244 0 0 1000000000 0 0 45
245 0 0 1000000000 0 58 0
246 0 0 1000000000 0 0 42
247 0 0 1000000000 0 0 71
248 0 0 1000000000 0 0 32
249 0 0 1000000000 0 5 0
250 0 0 1000000000 0 0 83
251 0 0 1000000000 0 0 77
252 0 0 1000000000 0 0 28
253 0 0 1000000000 0 22 0
254 0 0 1000000000 0 0 11
255 0 0 1000000000 0 0 49
256 0 0 1000000000 0 0 84
257 0 0 1000000000 0 17 0
258 0 0 1000000000 0 0 10
259 0 0 1000000000 0 0 43
260 0 0 1000000000 0 0 8
261 0 0 1000000000 0 75 0
262 0 0 1000000000 0 0 52
263 0 0 1000000000 0 0 27
264 0 0 1000000000 0 0 66
265 0 0 1000000000 0 46 0
266 0 0 1000000000 0 0 18
267 0 0 1000000000 0 0 39
268 0 0 1000000000 0 0 49
269 0 0 1000000000 0 45 0
270 0 0 1000000000 0 0 45
271 0 0 1000000000 0 0 49
272 0 0 1000000000 0 0 2
273 0 0 1000000000 0 46 0
274 0 0 1000000000 0 0 72
275 0 0 1000000000 0 0 77
276 0 0 1000000000 0 0 6
277 0 0 1000000000 0 21 0
278 0 0 1000000000 0 0 2
279 0 0 1000000000 0 0 33
280 0 0 1000000000 0 0 100
281 0 0 1000000000 0 50 0
282 0 0 1000000000 0 0 41
283 0 0 1000000000 0 0 70
284 0 0 1000000000 0 0 33
285 0 0 1000000000 0 76 0
286 0 0 1000000000 0 0 23
287 0 0 1000000000 0 0 84
288 0 0 1000000000 0 0 29
289 0 0 1000000000 0 18 0
290 0 0 1000000000 0 0 11
291 0 0 1000000000 0 0 50
292 0 0 1000000000 0 0 37
293 0 0 1000000000 0 88 0
294 0 0 1000000000 0 0 75
295 0 0 1000000000 0 0 69
296 0 0 1000000000 0 0 38
297 0 0 1000000000 0 14 0
298 0 0 1000000000 0 0 64
299 0 0 1000000000 0 0 78
300 0 0 1000000000 0 0 85
301 0 0 1000000000 0 27 0
302 0 0 1000000000 0 0 8
303 0 0 1000000000 0 0 55
304 0 0 1000000000 0 0 90
305 0 0 1000000000 0 57 0
306 0 0 1000000000 0 0 50
307 0 0 1000000000 0 0 48
308 0 0 1000000000 0 0 45
309 0 0 1000000000 0 65 0
310 0 0 1000000000 0 0 48
311 0 0 1000000000 0 0 29
312 0 0 1000000000 0 0 56
313 0 0 1000000000 0 13 0
314 0 0 1000000000 0 0 57
315 0 0 1000000000 0 0 53
316 0 0 1000000000 0 0 55
317 0 0 1000000000 0 35 0
318 0 0 1000000000 0 0 81
319 0 0 1000000000 0 0 54
320 0 0 1000000000 0 0 88
321 0 0 1000000000 0 50 0
322 0 0 1000000000 0 0 87
323 0 0 1000000000 0 0 63
324 0 0 1000000000 0 0 77
325 0 0 1000000000 0 46 0
326 0 0 1000000000 0 0 35
327 0 0 1000000000 0 0 83
328 0 0 1000000000 0 0 45
329 0 0 1000000000 0 58 0
330 0 0 1000000000 0 0 81
331 0 0 1000000000 0 0 32
332 0 0 1000000000 0 0 3
333 0 0 1000000000 0 66 0
334 0 0 1000000000 0 0 2
335 0 0 1000000000 0 0 89
336 0 0 1000000000 0 0 5
337 0 0 1000000000 0 77 0
338 0 0 1000000000 0 0 75
339 0 0 1000000000 0 0 13
340 0 0 1000000000 0 0 65
341 0 0 1000000000 0 65 0
342 0 0 1000000000 0 0 19
343 0 0 1000000000 0 0 70
344 0 0 1000000000 0 0 19
345 0 0 1000000000 0 1 0
346 0 0 1000000000 0 0 26
347 0 0 1000000000 0 0 88
348 0 0 1000000000 0 0 44
349 0 0 1000000000 0 12 0
350 0 0 1000000000 0 0 22
351 0 0 1000000000 0 0 32
352 0 0 1000000000 0 0 29
353 0 0 1000000000 0 14 0
354 0 0 1000000000 0 0 1
355 0 0 1000000000 0 0 49
356 0 0 1000000000 0 0 31
357 0 0 1000000000 0 14 0
358 0 0 1000000000 0 0 1
359 0 0 1000000000 0 0 74
360 0 0 1000000000 0 0 39
361 0 0 1000000000 0 23 0
362 0 0 1000000000 0 0 52
363 0 0 1000000000 0 0 12
364 0 0 1000000000 0 0 48
365 0 0 1000000000 0 29 0
366 0 0 1000000000 0 0 96
367 0 0 1000000000 0 0 100
368 0 0 1000000000 0 0 45
369 0 0 1000000000 0 17 0
370 0 0 1000000000 0 0 69
371 0 0 1000000000 0 0 93
372 0 0 1000000000 0 0 40
373 0 0 1000000000 0 88 0
374 0 0 1000000000 0 0 79
375 0 0 1000000000 0 0 28
376 0 0 1000000000 0 0 41
377 0 0 1000000000 0 28 0
378 0 0 1000000000 0 0 96
379 0 0 1000000000 0 0 28
380 0 0 1000000000 0 0 84
381 0 0 1000000000 0 2 0
382 0 0 1000000000 0 0 29
383 0 0 1000000000 0 0 13
384 0 0 1000000000 0 0 80
385 0 0 1000000000 0 88 0
386 0 0 1000000000 0 0 1
387 0 0 1000000000 0 0 17
388 0 0 1000000000 0 0 95
389 0 0 1000000000 0 34 0
390 0 0 1000000000 0 0 60
391 0 0 1000000000 0 0 36
392 0 0 1000000000 0 0 11
393 0 0 1000000000 0 9 0
394 0 0 1000000000 0 0 40
395 0 0 1000000000 0 0 97
396 0 0 1000000000 0 0 47
397 0 0 1000000000 0 50 0
398 0 0 1000000000 0 0 37
399 0 0 1000000000 0 0 16
400 0 0 1000000000 0 0 44
401 0 0 1000000000 0 89 0
402 0 0 1000000000 0 0 47
403 0 0 1000000000 0 0 83
404 0 0 1000000000 0 0 33
405 0 0 1000000000 0 17 0
406 0 0 1000000000 0 0 46
407 0 0 1000000000 0 0 12
408 0 0 1000000000 0 0 16
409 0 0 1000000000 0 19 0
410 0 0 1000000000 0 0 61
411 0 0 1000000000 0 0 42
412 0 0 1000000000 0 0 37
413 0 0 1000000000 0 21 0
414 0 0 1000000000 0 0 11
415 0 0 1000000000 0 0 81
416 0 0 1000000000 0 0 16
417 0 0 1000000000 0 2 0
418 0 0 1000000000 0 0 32
419 0 0 1000000000 0 0 45
420 0 0 1000000000 0 0 91
421 0 0 1000000000 0 15 0
422 0 0 1000000000 0 0 95
423 0 0 1000000000 0 0 97
424 0 0 1000000000 0 0 37
425 0 0 1000000000 0 24 0
426 0 0 1000000000 0 0 43
427 0 0 1000000000 0 0 6
428 0 0 1000000000 0 0 28
429 0 0 1000000000 0 16 0
430 0 0 1000000000 0 0 82
431 0 0 1000000000 0 0 2
432 0 0 1000000000 0 0 86
433 0 0 1000000000 0 9 0
434 0 0 1000000000 0 0 81
435 0 0 1000000000 0 0 22
436 0 0 1000000000 0 0 6
437 0 0 1000000000 0 5 0
438 0 0 1000000000 0 0 38
439 0 0 1000000000 0 0 43
440 0 0 1000000000 0 0 29
441 0 0 1000000000 0 39 0
442 0 0 1000000000 0 0 36
443 0 0 1000000000 0 0 12
444 0 0 1000000000 0 0 41
445 0 0 1000000000 0 86 0
446 0 0 1000000000 0 0 16
447 0 0 1000000000 0 0 65
448 0 0 1000000000 0 0 49
449 0 0 1000000000 0 32 0
450 0 0 1000000000 0 0 34
451 0 0 1000000000 0 0 63
452 0 0 1000000000 0 0 12
453 0 0 1000000000 0 35 0
454 0 0 1000000000 0 0 31
455 0 0 1000000000 0 0 29
456 0 0 1000000000 0 0 25
457 0 0 1000000000 0 33 0
458 0 0 1000000000 0 0 41
459 0 0 1000000000 0 0 65
460 0 0 1000000000 0 0 47
461 0 0 1000000000 0 4 0
462 0 0 1000000000 0 0 7
463 0 0 1000000000 0 0 23
464 0 0 1000000000 0 0 12
465 0 0 1000000000 0 9 0
466 0 0 1000000000 0 0 65
467 0 0 1000000000 0 0 83
468 0 0 1000000000 0 0 9
469 0 0 1000000000 0 28 0
470 0 0 1000000000 0 0 44
471 0 0 1000000000 0 0 48
472 0 0 1000000000 0 0 14
473 0 0 1000000000 0 28 0
474 0 0 1000000000 0 0 7
475 0 0 1000000000 0 0 78
476 0 0 1000000000 0 0 31
477 0 0 1000000000 0 30 0
478 0 0 1000000000 0 0 32
479 0 0 1000000000 0 0 8
480 0 0 1000000000 0 0 28
481 0 0 1000000000 0 35 0
482 0 0 1000000000 0 0 35
483 0 0 1000000000 0 0 4
484 0 0 1000000000 0 0 39
485 0 0 1000000000 0 21 0
486 0 0 1000000000 0 0 34
487 0 0 1000000000 0 0 3
488 0 0 1000000000 0 0 14
489 0 0 1000000000 0 40 0
490 0 0 1000000000 0 0 9
491 0 0 1000000000 0 0 45
492 0 0 1000000000 0 0 93
493 0 0 1000000000 0 49 0
494 0 0 1000000000 0 0 39
495 0 0 1000000000 0 0 41
496 0 0 1000000000 0 0 31
497 0 0 1000000000 0 41 0
498 0 0 1000000000 0 0 4
499 0 0 1000000000 0 0 39
500 0 0 1000000000 0 0 24
501 0 0 1000000000 0 19 0
502 0 0 1000000000 0 0 13
503 0 0 1000000000 0 0 85
504 0 0 1000000000 0 0 31
505 0 0 1000000000 0 4 0
506 0 0 1000000000 0 0 2
507 0 0 1000000000 0 0 60
508 0 0 1000000000 0 0 55
509 0 0 1000000000 0 14 0
510 0 0 1000000000 0 0 16
511 0 0 1000000000 0 0 11
512 0 0 1000000000 0 0 18
513 0 0 1000000000 0 84 0
514 0 0 1000000000 0 0 48
515 0 0 1000000000 0 0 94
516 0 0 1000000000 0 0 64
517 0 0 1000000000 0 2 0
518 0 0 1000000000 0 0 32
519 0 0 1000000000 0 0 28
520 0 0 1000000000 0 0 14
521 0 0 1000000000 0 36 0
522 0 0 1000000000 0 0 40
523 0 0 1000000000 0 0 39
524 0 0 1000000000 0 0 42
525 0 0 1000000000 0 34 0
526 0 0 1000000000 0 0 14
527 0 0 1000000000 0 0 77
528 0 0 1000000000 0 0 22
529 0 0 1000000000 0 99 0
530 0 0 1000000000 0 0 46
531 0 0 1000000000 0 0 37
532 0 0 1000000000 0 0 29
533 0 0 1000000000 0 94 0
534 0 0 1000000000 0 0 8
535 0 0 1000000000 0 0 29
536 0 0 1000000000 0 0 50
537 0 0 1000000000 0 22 0
538 0 0 1000000000 0 0 1
539 0 0 1000000000 0 0 34
540 0 0 1000000000 0 0 43
541 0 0 1000000000 0 77 0
542 0 0 1000000000 0 0 77
543 0 0 1000000000 0 0 34
544 0 0 1000000000 0 0 63
545 0 0 1000000000 0 82 0
546 0 0 1000000000 0 0 64
547 0 0 1000000000 0 0 3
548 0 0 1000000000 0 0 42
549 0 0 1000000000 0 2 0
550 0 0 1000000000 0 0 47
551 0 0 1000000000 0 0 11
552 0 0 1000000000 0 0 2
553 0 0 1000000000 0 31 0
554 0 0 1000000000 0 0 48
555 0 0 1000000000 0 0 9
556 0 0 1000000000 0 0 25
557 0 0 1000000000 0 99 0
558 0 0 1000000000 0 0 34
559 0 0 1000000000 0 0 26
560 0 0 1000000000 0 0 50
561 0 0 1000000000 0 39 0
562 0 0 1000000000 0 0 13
563 0 0 1000000000 0 0 6
564 0 0 1000000000 0 0 27
565 0 0 1000000000 0 26 0
566 0 0 1000000000 0 0 10
567 0 0 1000000000 0 0 47
568 0 0 1000000000 0 0 18
569 0 0 1000000000 0 93 0
570 0 0 1000000000 0 0 59
571 0 0 1000000000 0 0 17
572 0 0 1000000000 0 0 89
573 0 0 1000000000 0 61 0
574 0 0 1000000000 0 0 77
575 0 0 1000000000 0 0 32
576 0 0 1000000000 0 0 6
577 0 0 1000000000 0 34 0
578 0 0 1000000000 0 0 84
579 0 0 1000000000 0 0 47
580 0 0 1000000000 0 0 37
581 0 0 1000000000 0 100 0
582 0 0 1000000000 0 0 8
583 0 0 1000000000 0 0 34
584 0 0 1000000000 0 0 44
585 0 0 1000000000 0 46 0
586 0 0 1000000000 0 0 50
587 0 0 1000000000 0 0 33
588 0 0 1000000000 0 0 33
589 0 0 1000000000 0 34 0
590 0 0 1000000000 0 0 89
591 0 0 1000000000 0 0 42
592 0 0 1000000000 0 0 36
593 0 0 1000000000 0 6 0
594 0 0 1000000000 0 0 15
595 0 0 1000000000 0 0 12
596 0 0 1000000000 0 0 77
597 0 0 1000000000 0 8 0
598 0 0 1000000000 0 0 30
599 0 0 1000000000 0 0 89
600 0 0 1000000000 0 0 65
601 0 0 1000000000 0 14 0
602 0 0 1000000000 0 0 24
603 0 0 1000000000 0 0 67
604 0 0 1000000000 0 0 86
605 0 0 1000000000 0 11 0
606 0 0 1000000000 0 0 57
607 0 0 1000000000 0 0 77
608 0 0 1000000000 0 0 44
609 0 0 1000000000 0 9 0
610 0 0 1000000000 0 0 86
611 0 0 1000000000 0 0 24
612 0 0 1000000000 0 0 13
613 0 0 1000000000 0 44 0
614 0 0 1000000000 0 0 31
615 0 0 1000000000 0 0 12
616 0 0 1000000000 0 0 43
617 0 0 1000000000 0 36 0
618 0 0 1000000000 0 0 60
619 0 0 1000000000 0 0 8
620 0 0 1000000000 0 0 54
621 0 0 1000000000 0 50 0
622 0 0 1000000000 0 0 28
623 0 0 1000000000 0 0 6
624 0 0 1000000000 0 0 9
625 0 0 1000000000 0 86 0
626 0 0 1000000000 0 0 32
627 0 0 1000000000 0 0 43
628 0 0 1000000000 0 0 47
629 0 0 1000000000 0 27 0
630 0 0 1000000000 0 0 21
631 0 0 1000000000 0 0 5
632 0 0 1000000000 0 0 37
633 0 0 1000000000 0 33 0
634 0 0 1000000000 0 0 65
635 0 0 1000000000 0 0 21
636 0 0 1000000000 0 0 4
637 0 0 1000000000 0 11 0
638 0 0 1000000000 0 0 48
639 0 0 1000000000 0 0 51
640 0 0 1000000000 0 0 36
641 0 0 1000000000 0 51 0
642 0 0 1000000000 0 0 4
643 0 0 1000000000 0 0 17
644 0 0 1000000000 0 0 36
645 0 0 1000000000 0 41 0
646 0 0 1000000000 0 0 99
647 0 0 1000000000 0 0 47
648 0 0 1000000000 0 0 45
649 0 0 1000000000 0 26 0
650 0 0 1000000000 0 0 19
651 0 0 1000000000 0 0 83
652 0 0 1000000000 0 0 65
653 0 0 1000000000 0 32 0
654 0 0 1000000000 0 0 19
655 0 0 1000000000 0 0 45
656 0 0 1000000000 0 0 98
657 0 0 1000000000 0 17 0
658 0 0 1000000000 0 0 17
659 0 0 1000000000 0 0 100
660 0 0 1000000000 0 0 20
661 0 0 1000000000 0 45 0
662 0 0 1000000000 0 0 25
663 0 0 1000000000 0 0 46
664 0 0 1000000000 0 0 30
665 0 0 1000000000 0 38 0
666 0 0 1000000000 0 0 43
667 0 0 1000000000 0 0 9
668 0 0 1000000000 0 0 5
669 0 0 1000000000 0 33 0
670 0 0 1000000000 0 0 6
671 0 0 1000000000 0 0 75
672 0 0 1000000000 0 0 10
673 0 0 1000000000 0 87 0
674 0 0 1000000000 0 0 10
675 0 0 1000000000 0 0 25
676 0 0 1000000000 0 0 100
677 0 0 1000000000 0 4 0
678 0 0 1000000000 0 0 8
679 0 0 1000000000 0 0 5
680 0 0 1000000000 0 0 12
681 0 0 1000000000 0 28 0
682 0 0 1000000000 0 0 64
683 0 0 1000000000 0 0 16
684 0 0 1000000000 0 0 98
685 0 0 1000000000 0 4 0
